p tw 48 53
1 2
2 13
3 4
3 9
4 5
5 6
6 7
6 9
7 8
8 47
9 10
10 11
11 12
12 14
12 37
13 24
13 26
14 15
15 16
16 17
17 18
18 19
18 22
19 20
20 21
21 15
22 23
23 25
24 35
25 37
26 27
27 28
28 29
29 30
30 31
31 32
32 33
33 34
33 37
34 36
35 44
36 37
37 38
38 39
39 40
40 41
41 42
42 43
44 45
45 46
46 47
47 48
48 3
